p edge 291 927
e 1 4
e 1 5
e 1 11
e 1 13
e 1 23
e 1 25
e 1 29
e 1 30
e 1 31
e 1 45
e 1 65
e 1 75
e 1 98
e 1 122
e 1 138
e 1 176
e 1 216
e 1 217
e 1 266
e 2 6
e 2 13
e 2 29
e 2 35
e 2 51
e 2 67
e 2 72
e 2 91
e 2 107
e 2 152
e 2 160
e 2 253
e 2 282
e 2 283
e 3 6
e 3 8
e 3 62
e 3 63
e 3 66
e 3 89
e 3 91
e 3 177
e 3 180
e 3 183
e 3 192
e 3 269
e 4 5
e 4 16
e 4 23
e 4 34
e 4 43
e 4 45
e 4 49
e 4 64
e 4 67
e 4 68
e 4 75
e 4 101
e 4 140
e 5 7
e 5 8
e 5 14
e 5 16
e 5 19
e 5 26
e 5 36
e 5 44
e 5 59
e 5 65
e 5 77
e 5 101
e 5 108
e 5 118
e 5 171
e 5 240
e 5 272
e 6 13
e 6 24
e 6 31
e 6 37
e 6 41
e 6 66
e 6 72
e 6 73
e 6 88
e 6 90
e 6 100
e 6 116
e 6 151
e 6 236
e 7 10
e 7 18
e 7 22
e 7 26
e 7 44
e 7 46
e 7 50
e 7 53
e 7 54
e 7 59
e 7 77
e 7 118
e 7 171
e 7 200
e 7 219
e 7 281
e 8 9
e 8 15
e 8 16
e 8 19
e 8 22
e 8 36
e 8 52
e 8 61
e 8 65
e 8 83
e 8 85
e 8 180
e 8 200
e 8 240
e 9 10
e 9 17
e 9 22
e 9 24
e 9 29
e 9 41
e 9 48
e 9 50
e 9 53
e 9 62
e 9 85
e 9 221
e 9 242
e 10 46
e 10 48
e 10 50
e 10 62
e 10 69
e 10 88
e 10 119
e 10 136
e 10 201
e 11 12
e 11 30
e 11 44
e 11 45
e 11 53
e 11 77
e 11 81
e 11 98
e 11 117
e 11 122
e 11 139
e 11 166
e 11 168
e 11 174
e 11 194
e 11 289
e 12 21
e 12 23
e 12 30
e 12 50
e 12 54
e 12 74
e 12 81
e 12 110
e 12 139
e 12 141
e 12 177
e 12 206
e 12 276
e 12 277
e 12 278
e 13 14
e 13 16
e 13 28
e 13 35
e 13 38
e 13 42
e 13 61
e 13 103
e 13 106
e 13 190
e 14 19
e 14 28
e 14 35
e 14 44
e 14 61
e 14 101
e 14 108
e 14 129
e 14 161
e 15 19
e 15 36
e 15 44
e 15 45
e 15 56
e 15 70
e 15 75
e 15 78
e 15 92
e 15 113
e 15 154
e 15 155
e 15 158
e 15 164
e 15 173
e 15 196
e 15 273
e 16 19
e 16 33
e 16 36
e 16 39
e 16 62
e 16 68
e 16 74
e 16 101
e 16 191
e 16 214
e 16 240
e 16 258
e 16 259
e 17 29
e 17 41
e 17 55
e 17 69
e 17 94
e 17 131
e 17 242
e 18 22
e 18 32
e 18 37
e 18 62
e 18 70
e 18 72
e 18 90
e 19 28
e 19 36
e 19 42
e 19 44
e 19 59
e 19 75
e 19 79
e 19 101
e 19 108
e 19 118
e 19 154
e 19 240
e 20 47
e 20 56
e 20 70
e 20 89
e 20 133
e 20 145
e 20 161
e 20 182
e 20 183
e 20 201
e 20 214
e 20 233
e 20 286
e 20 287
e 21 31
e 21 32
e 21 43
e 21 84
e 21 110
e 21 141
e 21 158
e 21 223
e 21 232
e 22 33
e 22 46
e 22 56
e 22 68
e 22 76
e 22 85
e 22 87
e 23 25
e 23 90
e 23 149
e 23 165
e 23 176
e 23 189
e 24 30
e 24 32
e 24 43
e 24 87
e 24 119
e 24 136
e 24 245
e 24 280
e 25 30
e 25 31
e 25 63
e 25 92
e 25 109
e 25 130
e 25 135
e 25 144
e 25 176
e 25 178
e 25 197
e 26 44
e 26 215
e 26 218
e 27 57
e 27 97
e 27 106
e 27 111
e 27 138
e 27 142
e 27 144
e 27 153
e 27 160
e 27 169
e 27 197
e 27 224
e 27 248
e 28 35
e 28 38
e 28 42
e 28 61
e 28 103
e 28 131
e 28 150
e 28 175
e 28 190
e 29 41
e 29 58
e 29 65
e 29 95
e 29 107
e 29 242
e 30 31
e 30 139
e 30 167
e 30 174
e 30 194
e 30 255
e 30 280
e 31 37
e 31 51
e 31 88
e 31 90
e 31 96
e 31 118
e 31 128
e 31 141
e 31 152
e 31 178
e 31 197
e 31 202
e 31 223
e 32 39
e 32 40
e 32 50
e 32 84
e 32 136
e 32 245
e 33 76
e 33 171
e 33 182
e 33 191
e 33 203
e 33 204
e 34 73
e 34 95
e 34 97
e 34 104
e 34 125
e 34 146
e 34 179
e 34 271
e 35 60
e 35 61
e 35 153
e 35 160
e 35 251
e 35 260
e 36 44
e 36 47
e 36 75
e 36 87
e 36 88
e 36 119
e 36 154
e 36 240
e 36 273
e 37 42
e 37 88
e 37 90
e 37 102
e 37 150
e 37 163
e 38 39
e 38 46
e 38 61
e 38 79
e 38 83
e 38 85
e 38 103
e 38 161
e 38 190
e 38 205
e 39 40
e 39 46
e 39 50
e 39 83
e 39 98
e 39 254
e 39 258
e 39 259
e 40 64
e 40 161
e 41 53
e 41 66
e 41 100
e 41 116
e 41 221
e 41 236
e 41 242
e 42 80
e 42 103
e 42 131
e 42 150
e 42 163
e 42 190
e 43 64
e 43 83
e 43 87
e 43 91
e 43 140
e 44 53
e 44 77
e 44 101
e 44 154
e 44 273
e 45 75
e 45 78
e 45 92
e 45 98
e 45 105
e 45 122
e 45 138
e 45 145
e 45 158
e 46 49
e 46 52
e 46 64
e 46 83
e 46 84
e 46 87
e 46 98
e 46 136
e 46 228
e 46 246
e 47 59
e 47 71
e 47 88
e 47 108
e 47 118
e 47 119
e 47 182
e 47 193
e 47 214
e 48 49
e 48 50
e 48 59
e 48 62
e 48 79
e 48 93
e 48 121
e 48 227
e 49 64
e 49 78
e 49 79
e 49 98
e 49 136
e 49 137
e 49 181
e 49 227
e 50 53
e 50 54
e 50 62
e 50 77
e 50 219
e 51 75
e 51 96
e 51 112
e 51 118
e 51 128
e 51 141
e 51 152
e 51 202
e 52 83
e 52 159
e 52 228
e 52 288
e 53 54
e 53 64
e 53 77
e 53 108
e 53 200
e 53 219
e 53 221
e 53 252
e 53 281
e 54 55
e 54 68
e 54 77
e 54 143
e 54 195
e 54 196
e 54 219
e 55 69
e 55 94
e 55 120
e 55 131
e 55 143
e 55 195
e 55 196
e 56 68
e 56 70
e 56 133
e 56 145
e 56 183
e 56 233
e 56 285
e 57 97
e 57 104
e 57 106
e 57 111
e 57 151
e 57 153
e 57 157
e 57 188
e 57 220
e 58 66
e 58 80
e 58 95
e 58 97
e 58 130
e 59 79
e 59 100
e 59 118
e 60 105
e 60 155
e 60 262
e 60 263
e 60 265
e 60 270
e 61 65
e 61 78
e 61 96
e 61 103
e 61 190
e 61 200
e 61 202
e 61 251
e 62 74
e 62 90
e 62 177
e 63 80
e 63 91
e 63 95
e 63 130
e 63 142
e 63 169
e 63 172
e 63 269
e 64 70
e 64 77
e 64 98
e 64 108
e 64 136
e 64 140
e 64 252
e 65 77
e 65 83
e 65 87
e 65 122
e 65 154
e 65 178
e 65 200
e 65 272
e 66 100
e 66 116
e 66 148
e 66 236
e 67 72
e 67 82
e 67 282
e 67 283
e 68 101
e 68 239
e 69 94
e 69 124
e 69 173
e 69 201
e 70 89
e 70 241
e 71 96
e 71 108
e 71 187
e 72 82
e 72 126
e 72 151
e 72 210
e 72 256
e 73 86
e 73 97
e 73 126
e 73 229
e 73 230
e 74 84
e 75 110
e 75 154
e 76 98
e 76 279
e 77 108
e 77 219
e 77 252
e 77 272
e 78 92
e 78 96
e 78 158
e 78 202
e 79 227
e 80 95
e 80 97
e 80 103
e 80 190
e 81 96
e 81 177
e 81 267
e 81 268
e 82 109
e 82 225
e 83 91
e 83 154
e 83 178
e 84 246
e 85 103
e 85 205
e 85 206
e 85 261
e 86 93
e 86 126
e 86 185
e 86 186
e 86 229
e 86 230
e 87 122
e 88 90
e 88 119
e 89 192
e 89 211
e 90 122
e 90 187
e 91 269
e 92 105
e 92 130
e 92 144
e 92 158
e 93 185
e 93 186
e 94 208
e 95 125
e 95 130
e 96 152
e 96 187
e 96 202
e 96 267
e 96 268
e 97 102
e 97 111
e 97 147
e 97 153
e 97 188
e 98 122
e 98 136
e 98 279
e 99 150
e 99 156
e 99 163
e 99 170
e 99 179
e 99 212
e 99 243
e 99 244
e 100 116
e 100 120
e 100 159
e 100 236
e 102 147
e 102 188
e 103 190
e 103 205
e 104 111
e 104 123
e 104 151
e 104 198
e 104 224
e 104 271
e 105 120
e 105 145
e 105 155
e 105 158
e 105 164
e 105 265
e 106 111
e 106 142
e 106 169
e 106 188
e 107 116
e 107 117
e 107 166
e 107 290
e 107 291
e 108 252
e 109 110
e 109 128
e 109 135
e 109 137
e 109 140
e 109 162
e 109 207
e 110 128
e 110 135
e 110 140
e 110 141
e 110 194
e 111 151
e 111 153
e 111 160
e 111 188
e 111 224
e 112 134
e 112 165
e 112 199
e 112 249
e 112 250
e 113 117
e 113 133
e 113 155
e 113 164
e 113 168
e 113 195
e 113 196
e 113 237
e 114 115
e 114 127
e 114 131
e 114 132
e 114 146
e 114 175
e 115 127
e 115 131
e 115 132
e 115 146
e 115 175
e 116 236
e 117 166
e 117 168
e 117 195
e 117 237
e 117 289
e 117 290
e 117 291
e 118 128
e 118 141
e 120 143
e 120 159
e 120 164
e 121 192
e 122 187
e 123 198
e 123 224
e 126 167
e 126 209
e 126 210
e 126 229
e 126 230
e 126 234
e 126 256
e 127 132
e 127 175
e 127 213
e 127 222
e 127 264
e 128 135
e 128 140
e 128 141
e 128 176
e 132 146
e 132 175
e 133 145
e 133 155
e 134 138
e 134 199
e 135 139
e 135 140
e 135 207
e 136 245
e 137 140
e 137 162
e 137 181
e 137 207
e 137 225
e 138 144
e 139 207
e 139 223
e 140 162
e 140 207
e 141 223
e 142 162
e 142 169
e 142 185
e 143 145
e 143 195
e 143 196
e 144 211
e 146 179
e 147 148
e 147 188
e 147 257
e 148 170
e 148 184
e 148 231
e 149 165
e 149 189
e 149 215
e 150 163
e 150 170
e 150 243
e 150 244
e 151 198
e 152 184
e 152 202
e 152 212
e 153 181
e 154 178
e 154 273
e 155 164
e 155 196
e 155 265
e 156 160
e 156 212
e 157 220
e 158 232
e 159 238
e 160 224
e 162 185
e 162 207
e 162 235
e 163 170
e 163 243
e 163 244
e 164 196
e 164 247
e 165 249
e 165 250
e 166 168
e 166 289
e 166 290
e 166 291
e 167 209
e 167 234
e 168 195
e 168 237
e 168 289
e 170 184
e 170 231
e 170 243
e 170 244
e 174 194
e 174 216
e 174 217
e 178 197
e 182 191
e 182 214
e 183 233
e 184 212
e 184 231
e 185 186
e 186 210
e 191 214
e 195 196
e 195 237
e 197 248
e 198 224
e 199 274
e 199 275
e 200 219
e 200 281
e 201 286
e 201 287
e 203 204
e 205 220
e 206 261
e 206 276
e 206 277
e 206 278
e 209 234
e 210 256
e 213 222
e 213 226
e 216 217
e 216 266
e 217 266
e 219 281
e 222 264
e 227 284
e 228 288
e 229 230
e 243 244
e 249 250
e 258 259
e 262 263
e 267 268
e 274 275
e 276 277
e 276 278
e 277 278
e 282 283
e 286 287
e 290 291
